g3 0 1 0	# problem 2658
 184 190 1 0 155	# vars, constraints, objectives, ranges, eqns
 133 0	# nonlinear constraints, objectives
 0 0	# network constraints: nonlinear, linear
 96 0 0	# nonlinear vars in constraints, objectives, both
 0 0 0 1	# linear network variables; functions; arith, flags
 0 0 0 0 0	# discrete variables: binary, integer, nonlinear (b,c,o)
 651 1	# nonzeros in Jacobian, gradients
 0 0	# max name lengths: constraints, variables
 0 0 0 0 0	# common exprs: b,c,o,c1,o1
b
0 0 9.848857802
0 0 9.848857802
0 0 9.848857802
0 0 9.848857802
0 0 9.848857802
0 0 9.848857802
0 0 9.848857802
0 0 9.848857802
0 0 9.848857802
0 0 9.848857802
0 0 9.848857802
0 0 9.848857802
0 0 9.848857802
0 0 9.848857802
0 0 9.848857802
0 0 9.848857802
0 0 9.848857802
0 0 9.848857802
0 0 9.848857802
0 0 9.848857802
0 0 9.848857802
0 0 9.848857802
0 0 9.848857802
0 0 9.848857802
0 -9.848857802 9.848857802
0 -9.848857802 9.848857802
0 -9.848857802 9.848857802
0 -9.848857802 9.848857802
0 -9.848857802 9.848857802
0 -9.848857802 9.848857802
0 -9.848857802 9.848857802
0 -9.848857802 9.848857802
0 -9.848857802 9.848857802
0 -9.848857802 9.848857802
0 -9.848857802 9.848857802
0 -9.848857802 9.848857802
0 -9.848857802 9.848857802
0 -9.848857802 9.848857802
0 -9.848857802 9.848857802
0 -9.848857802 9.848857802
0 -9.848857802 9.848857802
0 -9.848857802 9.848857802
0 -9.848857802 9.848857802
0 -9.848857802 9.848857802
0 -9.848857802 9.848857802
0 -9.848857802 9.848857802
0 -9.848857802 9.848857802
0 -9.848857802 9.848857802
0 -9.848857802 9.848857802
0 -9.848857802 9.848857802
0 -9.848857802 9.848857802
0 -9.848857802 9.848857802
0 -9.848857802 9.848857802
0 -9.848857802 9.848857802
0 1.2 4.5
0 0 9
0 1.2 2
0 0 4
0 0.6 8.4
0 0.6 3.4
0 0.8 8.2
0 0.8 3.2
0 1.7 7.3
0 1.7 2.3
0 1.3 7.7
0 1.3 2.7
0 0.5 8.5
0 0.5 3.5
0 -0.8 0.8
0 -0.5 0.5
0 -0.8 0.8
0 -0.5 0.5
0 -1 1
0 -1 1
0 -1 1
0 -1 1
0 -1 1
0 -1 1
0 -1 1
0 -1 1
0 -1 1
0 -1 1
0 -1 1
0 -1 1
0 -1 1
0 -1 1
0 -1 1
0 -1 1
0 -1 1
0 -1 1
0 -1 1
0 -1 1
0 -1 1
0 -1 1
0 -1 1
0 -1 1
0 0 36
0 0 9
0 -9.848857802 9.848857802
0 0 4
0 -9.848857802 9.848857802
0 -9.848857802 9.848857802
0 -9.848857802 9.848857802
0 -9.848857802 9.848857802
0 -9.848857802 9.848857802
0 -9.848857802 9.848857802
0 -9.848857802 9.848857802
0 0 9
0 -9.848857802 9.848857802
0 0 4
0 -9.848857802 9.848857802
0 -9.848857802 9.848857802
0 -9.848857802 9.848857802
0 -9.848857802 9.848857802
0 -9.848857802 9.848857802
0 -9.848857802 9.848857802
0 -9.848857802 9.848857802
0 0 9
0 -9.848857802 9.848857802
0 0 4
0 -9.848857802 9.848857802
0 -9.848857802 9.848857802
0 -9.848857802 9.848857802
0 -9.848857802 9.848857802
0 -9.848857802 9.848857802
0 -9.848857802 9.848857802
0 -9.848857802 9.848857802
0 0 9
0 -9.848857802 9.848857802
0 0 4
0 -9.848857802 9.848857802
0 -9.848857802 9.848857802
0 -9.848857802 9.848857802
0 -9.848857802 9.848857802
0 -9.848857802 9.848857802
0 -9.848857802 9.848857802
0 -9.848857802 9.848857802
0 0 9
0 -9.848857802 9.848857802
0 0 4
0 -9.848857802 9.848857802
0 -9.848857802 9.848857802
0 -9.848857802 9.848857802
0 -9.848857802 9.848857802
0 -9.848857802 9.848857802
0 -9.848857802 9.848857802
0 -9.848857802 9.848857802
0 0 9
0 -9.848857802 9.848857802
0 0 4
0 -9.848857802 9.848857802
0 -9.848857802 9.848857802
0 -9.848857802 9.848857802
0 -9.848857802 9.848857802
0 -9.848857802 9.848857802
0 -9.848857802 9.848857802
0 -9.848857802 9.848857802
0 2.89 36
0 0 9
0 0 4
0 0 9
0 0 4
0 0 9
0 0 4
0 0 9
0 0 4
0 -0.8 0.8
0 -0.5 0.5
0 -0.8 0.8
0 0 9
0 -0.5 0.5
0 0 4
0 -9.848857802 9.848857802
0 -9.848857802 9.848857802
0 -9.848857802 9.848857802
0 -9.848857802 9.848857802
0 -9.848857802 9.848857802
0 -9.848857802 9.848857802
0 -9.848857802 9.848857802
0 -9.848857802 9.848857802
0 -9.848857802 9.848857802
0 -9.848857802 9.848857802
0 -9.848857802 9.848857802
0 -9.848857802 9.848857802
x13
54 1.2
56 1.2
58 0.6
59 0.6
60 0.8
61 0.8
62 1.7
63 1.7
64 1.3
65 1.3
66 0.5
67 0.5
157 2.89
r
4 0
4 0
4 0
4 0
4 0
4 0
4 0
4 0
4 0
4 0
4 0
4 0
4 0
4 0
4 0
4 0
4 0
4 0
4 0
4 0
4 0
4 0
4 0
4 0
4 0
4 0
4 0
4 0
4 0
4 0
4 0
4 0
4 0
4 0
4 0
4 0
4 0
4 0
4 0
4 0
4 0
4 0
4 0
4 0
4 0
4 0
4 0
4 0
4 0
4 0
4 0
4 0
4 0
4 0
4 0
4 0
4 0
4 0
4 0
4 0
4 0
4 0
4 0
4 0
4 0
4 0
4 0
4 0
4 0
4 0
4 0
4 0
4 0
4 0
4 0
4 0
4 0
4 0
4 0
4 0
4 0
4 0
4 0
4 0
4 0
4 0
4 0
4 0
4 0
4 0
4 0
4 0
4 0
4 0
4 0
4 0
4 0
4 0
4 0
4 0
4 0
4 0
4 0
4 0
4 0
4 0
4 0
4 0
4 0
2 3.24
2 4
2 8.41
2 6.25
2 2.89
2 1.96
2 5.29
2 3.61
2 1.21
2 6.25
2 4.41
2 1.69
2 9
2 4.84
2 3.24
4 0.25
4 0.64
4 1
4 1
4 1
4 1
4 1
4 1
4 0
4 -23.23937859
1 -1.2
1 -1.2
1 -0.6
1 -0.6
1 -0.8
1 -0.8
1 -1.7
1 -1.7
1 -1.3
1 -1.3
1 -0.5
1 -0.5
1 0
1 0
1 0
1 0
1 0
1 0
1 0
1 0
4 0
4 0
4 0
4 0
4 0
4 0
4 0
4 0
4 0
4 0
4 0
4 0
4 0
4 0
4 0
4 0
4 0
4 0
4 0
4 0
4 0
4 0
4 0
4 0
4 0
4 0
4 0
4 0
4 0
4 0
4 0
4 0
4 0
4 0
4 0
4 0
C0
o16
o2
v57
v55
C1
o2
v84
v24
C2
o2
v72
v24
C3
o2
v84
v25
C4
o2
v72
v25
C5
o2
v84
v26
C6
o2
v72
v26
C7
o2
v84
v27
C8
o2
v72
v27
C9
o2
v86
v28
C10
o2
v74
v28
C11
o2
v86
v29
C12
o2
v74
v29
C13
o2
v86
v30
C14
o2
v74
v30
C15
o2
v86
v31
C16
o2
v74
v31
C17
o2
v88
v32
C18
o2
v76
v32
C19
o2
v88
v33
C20
o2
v76
v33
C21
o2
v88
v34
C22
o2
v76
v34
C23
o2
v88
v35
C24
o2
v76
v35
C25
o2
v90
v36
C26
o2
v78
v36
C27
o2
v90
v37
C28
o2
v78
v37
C29
o2
v90
v38
C30
o2
v78
v38
C31
o2
v90
v39
C32
o2
v78
v39
C33
o2
v92
v40
C34
o2
v80
v40
C35
o2
v92
v41
C36
o2
v80
v41
C37
o2
v92
v42
C38
o2
v80
v42
C39
o2
v92
v43
C40
o2
v80
v43
C41
o2
v94
v44
C42
o2
v82
v44
C43
o2
v94
v45
C44
o2
v82
v45
C45
o2
v94
v46
C46
o2
v82
v46
C47
o2
v94
v47
C48
o2
v82
v47
C49
o2
v84
v48
C50
o2
v72
v48
C51
o2
v86
v49
C52
o2
v74
v49
C53
o2
v88
v50
C54
o2
v76
v50
C55
o2
v90
v51
C56
o2
v78
v51
C57
o2
v92
v52
C58
o2
v80
v52
C59
o2
v94
v53
C60
o2
v82
v53
C61
o16
o2
v73
v0
C62
o16
o2
v85
v0
C63
o16
o2
v73
v1
C64
o16
o2
v85
v1
C65
o16
o2
v73
v2
C66
o16
o2
v85
v2
C67
o16
o2
v73
v3
C68
o16
o2
v85
v3
C69
o16
o2
v75
v4
C70
o16
o2
v87
v4
C71
o16
o2
v75
v5
C72
o16
o2
v87
v5
C73
o16
o2
v75
v6
C74
o16
o2
v87
v6
C75
o16
o2
v75
v7
C76
o16
o2
v87
v7
C77
o16
o2
v77
v8
C78
o16
o2
v89
v8
C79
o16
o2
v77
v9
C80
o16
o2
v89
v9
C81
o16
o2
v77
v10
C82
o16
o2
v89
v10
C83
o16
o2
v77
v11
C84
o16
o2
v89
v11
C85
o16
o2
v79
v12
C86
o16
o2
v91
v12
C87
o16
o2
v79
v13
C88
o16
o2
v91
v13
C89
o16
o2
v79
v14
C90
o16
o2
v91
v14
C91
o16
o2
v79
v15
C92
o16
o2
v91
v15
C93
o16
o2
v81
v16
C94
o16
o2
v93
v16
C95
o16
o2
v81
v17
C96
o16
o2
v93
v17
C97
o16
o2
v81
v18
C98
o16
o2
v93
v18
C99
o16
o2
v81
v19
C100
o16
o2
v93
v19
C101
o16
o2
v83
v20
C102
o16
o2
v95
v20
C103
o16
o2
v83
v21
C104
o16
o2
v95
v21
C105
o16
o2
v83
v22
C106
o16
o2
v95
v22
C107
o16
o2
v83
v23
C108
o16
o2
v95
v23
C109
o54
6
o5
v54
n2
o16
o2
o2
n2
v58
v54
o5
v56
n2
o16
o2
o2
n2
v59
v56
o5
v58
n2
o2
v59
v59
C110
o54
6
o5
v54
n2
o16
o2
o2
n2
v60
v54
o5
v56
n2
o16
o2
o2
n2
v61
v56
o5
v60
n2
o2
v61
v61
C111
o54
6
o5
v54
n2
o16
o2
o2
n2
v62
v54
o5
v56
n2
o16
o2
o2
n2
v63
v56
o5
v62
n2
o2
v63
v63
C112
o54
6
o5
v54
n2
o16
o2
o2
n2
v64
v54
o5
v56
n2
o16
o2
o2
n2
v65
v56
o5
v64
n2
o2
v65
v65
C113
o54
6
o5
v54
n2
o16
o2
o2
n2
v66
v54
o5
v56
n2
o16
o2
o2
n2
v67
v56
o5
v66
n2
o2
v67
v67
C114
o54
6
o5
v58
n2
o16
o2
o2
n2
v60
v58
o5
v59
n2
o16
o2
o2
n2
v61
v59
o5
v60
n2
o2
v61
v61
C115
o54
6
o5
v58
n2
o16
o2
o2
n2
v62
v58
o5
v59
n2
o16
o2
o2
n2
v63
v59
o5
v62
n2
o2
v63
v63
C116
o54
6
o5
v58
n2
o16
o2
o2
n2
v64
v58
o5
v59
n2
o16
o2
o2
n2
v65
v59
o5
v64
n2
o2
v65
v65
C117
o54
6
o5
v58
n2
o16
o2
o2
n2
v66
v58
o5
v59
n2
o16
o2
o2
n2
v67
v59
o5
v66
n2
o2
v67
v67
C118
o54
6
o5
v60
n2
o16
o2
o2
n2
v62
v60
o5
v61
n2
o16
o2
o2
n2
v63
v61
o5
v62
n2
o2
v63
v63
C119
o54
6
o5
v60
n2
o16
o2
o2
n2
v64
v60
o5
v61
n2
o16
o2
o2
n2
v65
v61
o5
v64
n2
o2
v65
v65
C120
o54
6
o5
v60
n2
o16
o2
o2
n2
v66
v60
o5
v61
n2
o16
o2
o2
n2
v67
v61
o5
v66
n2
o2
v67
v67
C121
o54
6
o5
v62
n2
o16
o2
o2
n2
v64
v62
o5
v63
n2
o16
o2
o2
n2
v65
v63
o5
v64
n2
o2
v65
v65
C122
o54
6
o5
v62
n2
o16
o2
o2
n2
v66
v62
o5
v63
n2
o16
o2
o2
n2
v67
v63
o5
v66
n2
o2
v67
v67
C123
o54
6
o5
v64
n2
o16
o2
o2
n2
v66
v64
o5
v65
n2
o16
o2
o2
n2
v67
v65
o5
v66
n2
o2
v67
v67
C124
o0
o5
v68
n2
o5
v69
n2
C125
o0
o5
v70
n2
o5
v71
n2
C126
o0
o5
v72
n2
o5
v84
n2
C127
o0
o5
v74
n2
o5
v86
n2
C128
o0
o5
v76
n2
o5
v88
n2
C129
o0
o5
v78
n2
o5
v90
n2
C130
o0
o5
v80
n2
o5
v92
n2
C131
o0
o5
v82
n2
o5
v94
n2
C132
o0
o2
v70
v68
o2
v71
v69
C133
n0
C134
n0
C135
n0
C136
n0
C137
n0
C138
n0
C139
n0
C140
n0
C141
n0
C142
n0
C143
n0
C144
n0
C145
n0
C146
n0
C147
n0
C148
n0
C149
n0
C150
n0
C151
n0
C152
n0
C153
n0
C154
n0
C155
n0
C156
n0
C157
n0
C158
n0
C159
n0
C160
n0
C161
n0
C162
n0
C163
n0
C164
n0
C165
n0
C166
n0
C167
n0
C168
n0
C169
n0
C170
n0
C171
n0
C172
n0
C173
n0
C174
n0
C175
n0
C176
n0
C177
n0
C178
n0
C179
n0
C180
n0
C181
n0
C182
n0
C183
n0
C184
n0
C185
n0
C186
n0
C187
n0
C188
n0
C189
n0
O0 0
n0
k183
2
4
6
8
10
12
14
16
18
20
22
24
26
28
30
32
34
36
38
40
42
44
46
48
50
52
54
56
58
60
62
64
66
68
70
72
74
76
78
80
82
84
86
88
90
92
94
96
98
100
102
104
106
108
115
126
133
144
151
158
165
172
179
186
193
200
207
214
218
222
226
230
237
243
250
256
263
269
276
282
289
295
302
308
315
321
328
334
341
347
354
360
367
373
380
386
387
392
394
399
401
403
405
407
409
411
413
418
420
425
427
429
431
433
435
437
439
444
446
451
453
455
457
459
461
463
465
470
472
477
479
481
483
485
487
489
491
496
498
503
505
507
509
511
513
515
517
522
524
529
531
533
535
537
539
541
543
545
554
563
572
581
590
599
608
617
619
621
623
624
626
627
629
631
633
635
637
639
641
643
645
647
649
J0 3
55 0
57 0
157 1
J1 5
24 0
84 0
97 1
98 1
158 -1
J2 5
24 0
72 0
99 1
100 1
159 -1
J3 5
25 0
84 0
97 1
101 1
160 -1
J4 5
25 0
72 0
99 1
102 1
161 -1
J5 5
26 0
84 0
97 1
103 1
162 -1
J6 5
26 0
72 0
99 1
104 1
163 -1
J7 5
27 0
84 0
97 1
105 1
164 -1
J8 5
27 0
72 0
99 1
106 1
165 -1
J9 5
28 0
86 0
107 1
108 1
158 -1
J10 5
28 0
74 0
109 1
110 1
159 -1
J11 5
29 0
86 0
107 1
111 1
160 -1
J12 5
29 0
74 0
109 1
112 1
161 -1
J13 5
30 0
86 0
107 1
113 1
162 -1
J14 5
30 0
74 0
109 1
114 1
163 -1
J15 5
31 0
86 0
107 1
115 1
164 -1
J16 5
31 0
74 0
109 1
116 1
165 -1
J17 5
32 0
88 0
117 1
118 1
158 -1
J18 5
32 0
76 0
119 1
120 1
159 -1
J19 5
33 0
88 0
117 1
121 1
160 -1
J20 5
33 0
76 0
119 1
122 1
161 -1
J21 5
34 0
88 0
117 1
123 1
162 -1
J22 5
34 0
76 0
119 1
124 1
163 -1
J23 5
35 0
88 0
117 1
125 1
164 -1
J24 5
35 0
76 0
119 1
126 1
165 -1
J25 5
36 0
90 0
127 1
128 1
158 -1
J26 5
36 0
78 0
129 1
130 1
159 -1
J27 5
37 0
90 0
127 1
131 1
160 -1
J28 5
37 0
78 0
129 1
132 1
161 -1
J29 5
38 0
90 0
127 1
133 1
162 -1
J30 5
38 0
78 0
129 1
134 1
163 -1
J31 5
39 0
90 0
127 1
135 1
164 -1
J32 5
39 0
78 0
129 1
136 1
165 -1
J33 5
40 0
92 0
137 1
138 1
158 -1
J34 5
40 0
80 0
139 1
140 1
159 -1
J35 5
41 0
92 0
137 1
141 1
160 -1
J36 5
41 0
80 0
139 1
142 1
161 -1
J37 5
42 0
92 0
137 1
143 1
162 -1
J38 5
42 0
80 0
139 1
144 1
163 -1
J39 5
43 0
92 0
137 1
145 1
164 -1
J40 5
43 0
80 0
139 1
146 1
165 -1
J41 5
44 0
94 0
147 1
148 1
158 -1
J42 5
44 0
82 0
149 1
150 1
159 -1
J43 5
45 0
94 0
147 1
151 1
160 -1
J44 5
45 0
82 0
149 1
152 1
161 -1
J45 5
46 0
94 0
147 1
153 1
162 -1
J46 5
46 0
82 0
149 1
154 1
163 -1
J47 5
47 0
94 0
147 1
155 1
164 -1
J48 5
47 0
82 0
149 1
156 1
165 -1
J49 5
48 0
54 -1
84 0
97 1
172 1
J50 5
48 0
56 -1
72 0
99 1
173 1
J51 5
49 0
58 -1
86 0
107 1
174 1
J52 5
49 0
59 -1
74 0
109 1
175 1
J53 5
50 0
60 -1
88 0
117 1
176 1
J54 5
50 0
61 -1
76 0
119 1
177 1
J55 5
51 0
62 -1
90 0
127 1
178 1
J56 5
51 0
63 -1
78 0
129 1
179 1
J57 5
52 0
64 -1
92 0
137 1
180 1
J58 5
52 0
65 -1
80 0
139 1
181 1
J59 5
53 0
66 -1
94 0
147 1
182 1
J60 5
53 0
67 -1
82 0
149 1
183 1
J61 3
0 0
73 0
98 1
J62 3
0 0
85 0
100 1
J63 3
1 0
73 0
101 1
J64 3
1 0
85 0
102 1
J65 3
2 0
73 0
103 1
J66 3
2 0
85 0
104 1
J67 3
3 0
73 0
105 1
J68 3
3 0
85 0
106 1
J69 3
4 0
75 0
108 1
J70 3
4 0
87 0
110 1
J71 3
5 0
75 0
111 1
J72 3
5 0
87 0
112 1
J73 3
6 0
75 0
113 1
J74 3
6 0
87 0
114 1
J75 3
7 0
75 0
115 1
J76 3
7 0
87 0
116 1
J77 3
8 0
77 0
118 1
J78 3
8 0
89 0
120 1
J79 3
9 0
77 0
121 1
J80 3
9 0
89 0
122 1
J81 3
10 0
77 0
123 1
J82 3
10 0
89 0
124 1
J83 3
11 0
77 0
125 1
J84 3
11 0
89 0
126 1
J85 3
12 0
79 0
128 1
J86 3
12 0
91 0
130 1
J87 3
13 0
79 0
131 1
J88 3
13 0
91 0
132 1
J89 3
14 0
79 0
133 1
J90 3
14 0
91 0
134 1
J91 3
15 0
79 0
135 1
J92 3
15 0
91 0
136 1
J93 3
16 0
81 0
138 1
J94 3
16 0
93 0
140 1
J95 3
17 0
81 0
141 1
J96 3
17 0
93 0
142 1
J97 3
18 0
81 0
143 1
J98 3
18 0
93 0
144 1
J99 3
19 0
81 0
145 1
J100 3
19 0
93 0
146 1
J101 3
20 0
83 0
148 1
J102 3
20 0
95 0
150 1
J103 3
21 0
83 0
151 1
J104 3
21 0
95 0
152 1
J105 3
22 0
83 0
153 1
J106 3
22 0
95 0
154 1
J107 3
23 0
83 0
155 1
J108 3
23 0
95 0
156 1
J109 4
54 0
56 0
58 0
59 0
J110 4
54 0
56 0
60 0
61 0
J111 4
54 0
56 0
62 0
63 0
J112 4
54 0
56 0
64 0
65 0
J113 4
54 0
56 0
66 0
67 0
J114 4
58 0
59 0
60 0
61 0
J115 4
58 0
59 0
62 0
63 0
J116 4
58 0
59 0
64 0
65 0
J117 4
58 0
59 0
66 0
67 0
J118 4
60 0
61 0
62 0
63 0
J119 4
60 0
61 0
64 0
65 0
J120 4
60 0
61 0
66 0
67 0
J121 4
62 0
63 0
64 0
65 0
J122 4
62 0
63 0
66 0
67 0
J123 4
64 0
65 0
66 0
67 0
J124 2
68 0
69 0
J125 2
70 0
71 0
J126 2
72 0
84 0
J127 2
74 0
86 0
J128 2
76 0
88 0
J129 2
78 0
90 0
J130 2
80 0
92 0
J131 2
82 0
94 0
J132 4
68 0
69 0
70 0
71 0
J133 2
96 1
157 -1
J134 2
54 1
55 -1
J135 2
56 1
57 -1
J136 2
55 -1
58 1
J137 2
57 -1
59 1
J138 2
55 -1
60 1
J139 2
57 -1
61 1
J140 2
55 -1
62 1
J141 2
57 -1
63 1
J142 2
55 -1
64 1
J143 2
57 -1
65 1
J144 2
55 -1
66 1
J145 2
57 -1
67 1
J146 2
55 -1
158 1
J147 2
57 -1
159 1
J148 2
55 -1
160 1
J149 2
57 -1
161 1
J150 2
55 -1
162 1
J151 2
57 -1
163 1
J152 2
55 -1
164 1
J153 2
57 -1
165 1
J154 3
68 1
158 1
160 -1
J155 3
69 1
159 1
161 -1
J156 3
70 1
160 1
162 -1
J157 3
71 1
161 1
163 -1
J158 3
162 1
164 -1
166 1
J159 3
163 1
165 -1
167 1
J160 4
158 -1
164 2
168 1
169 -1
J161 4
159 -1
165 2
170 1
171 -1
J162 2
68 1
166 1
J163 2
69 1
167 1
J164 2
70 1
168 1
J165 2
71 1
170 1
J166 2
72 -1
73 1
J167 2
74 -1
75 1
J168 2
76 -1
77 1
J169 2
78 -1
79 1
J170 2
80 -1
81 1
J171 2
82 -1
83 1
J172 2
84 1
85 1
J173 2
86 1
87 1
J174 2
88 1
89 1
J175 2
90 1
91 1
J176 2
92 1
93 1
J177 2
94 1
95 1
J178 2
73 1.2
172 1
J179 2
85 1.2
173 1
J180 2
75 0.6
174 1
J181 2
87 0.6
175 1
J182 2
77 0.8
176 1
J183 2
89 0.8
177 1
J184 2
79 1.7
178 1
J185 2
91 1.7
179 1
J186 2
81 1.3
180 1
J187 2
93 1.3
181 1
J188 2
83 0.5
182 1
J189 2
95 0.5
183 1
G0 1
96 1
